Number of variables: 66
Number of constraints: 440
Constraints density: 0.3023415977961432
Maximum factor: 4.7
Minimum factor: -0.000102
17.994165420532227ms cplex
116.43552780151367ms glpk
69.69118118286133ms lp_solve
65.9780502319336ms clp
-0.0 Value of objective function EXCEPTION [cplex]
-160834336.5 Value of objective function [glpk]
-160834000.0 Value of objective function [lp_solve]
-160834340.0 Value of objective function [clp]
